95
23
0 25 26 29 32 33 34 35 39 41 42 44 45 46 47 48 52 55 57 59 62 64 67 72 73 74 75 76 79 80 81 82 83 84 85 87 88 91 92
1 23 24 25 27 29 32 33 34 39 40 44 45 46 47 52 57 59 62 64 67 70 72 76 77 82 83 84 85 87 91 92 93 94
2 25 26 29 31 33 34 35 36 39 42 43 44 45 48 49 54 57 59 72 73 76 81 84 85 87 89 91 93
3 24 27 28 29 32 33 34 35 37 39 43 44 52 57 58 59 62 66 67 72 73 76 77 78 80 81 83 84 85 87 88 91 92 93
4 26 27 29 30 32 33 34 35 37 39 41 43 44 45 47 49 52 54 55 57 59 62 64 67 68 70 72 73 74 75 76 77 78 79 82 83 84 85 86 88 91 92 93
5 23 24 29 32 33 35 36 39 41 42 43 44 45 46 47 49 55 58 59 61 62 64 66 68 70 74 76 80 83 84 85 87 89 91 92 94
6 23 25 27 29 30 31 32 33 34 35 41 42 43 44 45 46 47 48 52 55 56 57 58 59 62 64 66 67 71 72 75 77 82 83 84 85 87 92
7 24 28 29 30 32 39 40 41 42 45 46 47 48 49 52 54 55 57 62 64 66 67 68 70 72 73 74 76 77 78 79 80 83 84 87 89 90 91 92 93 94
8 23 27 29 32 34 35 40 41 43 44 46 48 49 54 55 57 58 59 62 64 67 69 70 72 73 74 75 77 80 82 83 84 85 86 87 88 89 91 92
9 23 24 25 27 28 35 36 37 39 40 43 44 46 48 51 54 55 62 63 66 67 71 74 77 83 85 89 91 92 93
10 23 24 25 28 33 36 37 43 44 45 47 49 52 58 60 64 66 67 68 69 71 72 75 79 84 85 87 93 94
11 24 27 29 30 31 32 36 39 40 41 42 44 45 47 51 53 56 57 59 61 62 70 71 75 79 80 82 84 88 93
12 24 27 28 34 40 42 44 46 47 49 54 56 57 60 64 66 69 70 76 77 82 86 88 91 94
13 28 31 35 37 39 40 41 42 43 47 49 52 55 56 58 66 70 78 80 86 91 92 93
14 28 30 33 34 36 39 43 44 45 47 48 52 56 58 67 70 73 77 80 82 84 87 88 89 91 93
15 27 29 31 33 34 40 42 44 45 46 49 51 55 64 77 81 83 84 86 87 89 91 92 94
16 26 36 37 39 42 46 49 50 54 55 62 70 71 72 73 74 75 77 79 81 85 90 92 94
17 27 32 33 34 38 47 52 54 55 56 58 62 66 76 87 90 91
18 25 26 27 30 39 55 57 64 65 67 73 84 89 94
19 24 26 29 31 32 39 42 45 48 58 62 66 67 76 82
20 24 35 40 61 63 65 71 77 79
21 27 31 54 55 68 69 83 85
22
